c CNF file corresponding to a (partial) station packing problem.
p cnf 1467 229
1 2 3 4 5 6 7 8 9 10 11 12 13 14 0
-1 -2 0
-1 -3 0
-1 -4 0
-1 -5 0
-1 -6 0
-1 -7 0
-1 -8 0
-1 -9 0
-1 -10 0
-1 -11 0
-1 -12 0
-1 -13 0
-1 -14 0
-2 -3 0
-2 -4 0
-2 -5 0
-2 -6 0
-2 -7 0
-2 -8 0
-2 -9 0
-2 -10 0
-2 -11 0
-2 -12 0
-2 -13 0
-2 -14 0
-3 -4 0
-3 -5 0
-3 -6 0
-3 -7 0
-3 -8 0
-3 -9 0
-3 -10 0
-3 -11 0
-3 -12 0
-3 -13 0
-3 -14 0
-4 -5 0
-4 -6 0
-4 -7 0
-4 -8 0
-4 -9 0
-4 -10 0
-4 -11 0
-4 -12 0
-4 -13 0
-4 -14 0
-5 -6 0
-5 -7 0
-5 -8 0
-5 -9 0
-5 -10 0
-5 -11 0
-5 -12 0
-5 -13 0
-5 -14 0
-6 -7 0
-6 -8 0
-6 -9 0
-6 -10 0
-6 -11 0
-6 -12 0
-6 -13 0
-6 -14 0
-7 -8 0
-7 -9 0
-7 -10 0
-7 -11 0
-7 -12 0
-7 -13 0
-7 -14 0
-8 -9 0
-8 -10 0
-8 -11 0
-8 -12 0
-8 -13 0
-8 -14 0
-9 -10 0
-9 -11 0
-9 -12 0
-9 -13 0
-9 -14 0
-10 -11 0
-10 -12 0
-10 -13 0
-10 -14 0
-11 -12 0
-11 -13 0
-11 -14 0
-12 -13 0
-12 -14 0
-13 -14 0
1451 1452 1453 1454 1455 1456 1457 1458 1459 1460 1461 1462 1463 1464 1465 1466 1467 0
-1451 -1452 0
-1451 -1453 0
-1451 -1454 0
-1451 -1455 0
-1451 -1456 0
-1451 -1457 0
-1451 -1458 0
-1451 -1459 0
-1451 -1460 0
-1451 -1461 0
-1451 -1462 0
-1451 -1463 0
-1451 -1464 0
-1451 -1465 0
-1451 -1466 0
-1451 -1467 0
-1452 -1453 0
-1452 -1454 0
-1452 -1455 0
-1452 -1456 0
-1452 -1457 0
-1452 -1458 0
-1452 -1459 0
-1452 -1460 0
-1452 -1461 0
-1452 -1462 0
-1452 -1463 0
-1452 -1464 0
-1452 -1465 0
-1452 -1466 0
-1452 -1467 0
-1453 -1454 0
-1453 -1455 0
-1453 -1456 0
-1453 -1457 0
-1453 -1458 0
-1453 -1459 0
-1453 -1460 0
-1453 -1461 0
-1453 -1462 0
-1453 -1463 0
-1453 -1464 0
-1453 -1465 0
-1453 -1466 0
-1453 -1467 0
-1454 -1455 0
-1454 -1456 0
-1454 -1457 0
-1454 -1458 0
-1454 -1459 0
-1454 -1460 0
-1454 -1461 0
-1454 -1462 0
-1454 -1463 0
-1454 -1464 0
-1454 -1465 0
-1454 -1466 0
-1454 -1467 0
-1455 -1456 0
-1455 -1457 0
-1455 -1458 0
-1455 -1459 0
-1455 -1460 0
-1455 -1461 0
-1455 -1462 0
-1455 -1463 0
-1455 -1464 0
-1455 -1465 0
-1455 -1466 0
-1455 -1467 0
-1456 -1457 0
-1456 -1458 0
-1456 -1459 0
-1456 -1460 0
-1456 -1461 0
-1456 -1462 0
-1456 -1463 0
-1456 -1464 0
-1456 -1465 0
-1456 -1466 0
-1456 -1467 0
-1457 -1458 0
-1457 -1459 0
-1457 -1460 0
-1457 -1461 0
-1457 -1462 0
-1457 -1463 0
-1457 -1464 0
-1457 -1465 0
-1457 -1466 0
-1457 -1467 0
-1458 -1459 0
-1458 -1460 0
-1458 -1461 0
-1458 -1462 0
-1458 -1463 0
-1458 -1464 0
-1458 -1465 0
-1458 -1466 0
-1458 -1467 0
-1459 -1460 0
-1459 -1461 0
-1459 -1462 0
-1459 -1463 0
-1459 -1464 0
-1459 -1465 0
-1459 -1466 0
-1459 -1467 0
-1460 -1461 0
-1460 -1462 0
-1460 -1463 0
-1460 -1464 0
-1460 -1465 0
-1460 -1466 0
-1460 -1467 0
-1461 -1462 0
-1461 -1463 0
-1461 -1464 0
-1461 -1465 0
-1461 -1466 0
-1461 -1467 0
-1462 -1463 0
-1462 -1464 0
-1462 -1465 0
-1462 -1466 0
-1462 -1467 0
-1463 -1464 0
-1463 -1465 0
-1463 -1466 0
-1463 -1467 0
-1464 -1465 0
-1464 -1466 0
-1464 -1467 0
-1465 -1466 0
-1465 -1467 0
-1466 -1467 0
